5342
500000
333280
333280
332973
332973
332973
332295
332295
332295
332295
332295
332295
332295
332295
332295
332295
332295
331096
331096
331096
331096
329434
329434
329434
329434
329434
329434
329434
329434
329434
329434
329434
329434
329434
329434
329434
329229
329229
329229
328504
328504
328504
328504
328504
328504
328504
328345
328345
328345
328345
328345
328345
328345
328345
328345
328291
328291
328291
328291
328291
328291
328110
328110
328110
328110
328110
328110
328110
328110
328110
328110
328110
328110
328110
328110
328110
327883
327883
327883
327883
327883
327883
327883
327883
327883
327883
327883
327883
327883
327883
327883
327883
327883
327883
325340
325340
325340
325340
325340
325340
325340
325340
325340
325340
323986
323986
323986
323986
323986
323986
323986
323986
323986
323986
323986
323986
323986
323986
322243
322243
322243
322243
322243
322243
322243
322243
322243
322243
320755
320755
320755
320755
320755
320755
320755
320755
320755
320755
320755
320755
320755
320755
320755
319460
319460
319460
319460
319460
319460
319460
319460
319460
319031
319031
319031
319031
319031
319031
318837
318837
318837
318837
318837
318837
318837
318837
318837
318837
318837
318837
318837
318837
317779
317779
317779
317779
317779
317779
317779
317779
317779
317779
317779
317779
317779
317779
317779
317452
317452
317452
317452
317452
317452
317231
317231
315663
315663
315663
315663
315663
315663
315663
315663
315663
315663
313178
313178
313178
313178
313178
313178
313178
313178
313178
313178
312748
312748
312748
312748
312748
312748
312748
312748
312122
312122
312122
312122
312047
312047
312047
312047
312047
312047
312047
312047
312047
311816
311816
311816
311816
311816
311816
311816
311816
311164
311164
311164
311164
311164
310645
310645
310645
310645
310645
310645
310645
310645
310373
310373
310373
310373
310373
310373
310373
310373
310373
310373
310373
310373
310373
310373
310373
310373
310373
310373
310192
310192
310192
310192
310192
310192
310192
310192
310192
310192
310192
310192
310192
310192
310192
310192
310192
310192
310192
310192
308720
308720
308720
308720
308720
308720
308720
308720
308720
308720
308720
308720
308322
308322
308322
308322
308322
308322
308322
308322
308322
308322
308322
308322
308322
307907
307907
307907
307907
307907
307907
307907
307907
307907
307907
307256
307256
307256
307256
307256
307256
307256
307256
307256
307256
307256
307256
307201
307201
307201
307201
307201
307201
307201
307201
307201
307201
307201
307201
307201
307201
307201
307201
307201
307201
307201
306885
306885
306885
306885
306885
306885
306885
306885
306885
306885
306885
306885
306885
306885
306885
306885
306885
306885
306885
306693
306693
306693
306693
306693
306693
306693
306693
306693
306693
306693
306693
306693
306270
306270
306270
306270
306270
306270
306270
306270
306270
306270
306270
306270
306270
306270
306270
306270
306270
305521
305521
305521
305521
304598
304598
304598
304598
304598
304598
304598
304598
304598
304598
304598
304598
304598
304598
304598
304598
304598
304598
304598
304598
303470
303470
303470
303470
303470
303470
303470
303470
303470
303470
303470
303470
303470
303470
303470
303470
303313
303313
303313
303313
303313
303313
302974
302974
302974
302974
302974
302974
302974
302307
302307
302307
302307
302307
302307
302307
302307
302307
302307
302307
302307
302307
302307
302307
302307
302307
302307
301918
301798
301798
301798
301798
301798
301798
301798
301798
301798
301798
301798
301798
301798
301798
301798
301798
301798
301798
301798
301798
301564
301564
301564
301564
301564
301564
301564
301564
301564
301564
301564
301564
301438
301438
301438
301438
301438
301438
301438
301438
301438
301438
301438
301354
301354
301354
301354
301354
301354
301354
301354
301354
301354
301354
301354
301354
301354
301354
301354
301231
301231
301231
301231
301231
301231
301231
301231
301231
301231
301231
301231
301231
301231
301231
300105
300105
300105
300105
298818
298818
298818
298818
298818
298818
298818
298818
298818
298818
298818
298818
298818
298818
298808
298808
298808
298808
298808
298808
298623
298623
298623
298623
298623
298623
298623
298623
298623
298623
298623
298623
298623
298623
298623
298623
298623
298623
297601
297601
297601
297601
297601
297601
297601
297601
297601
297601
297601
297601
297601
297601
297601
297018
297018
297018
297018
297018
297018
297018
297018
297018
297018
297018
297018
297018
297018
297018
297018
296379
296379
296379
296379
296379
296379
296379
296379
296379
296379
296379
296379
296379
296379
296379
296379
296379
296080
296080
296080
296080
296080
296080
296080
296080
296080
296080
296080
296080
295509
295509
295509
295509
295509
295509
295509
295509
295509
295509
295509
295509
295509
295509
295509
295509
295509
295509
295496
295496
295496
295496
295496
295496
295496
295496
295496
295496
295496
295496
295496
295020
295020
295020
295020
295020
295020
295020
295020
295020
295020
295020
295020
295020
295020
295020
294049
294049
294049
294049
294049
294049
294049
294049
294049
294049
292341
292341
292341
292341
292341
292341
292341
292341
292341
292341
292341
292341
292341
292341
292257
292257
292257
292257
292257
292257
292257
292257
292257
292257
292257
292257
292257
292257
292257
292257
292078
292078
292078
292078
292078
292078
292078
292078
292078
292078
292078
292078
291519
291519
291519
291519
291519
291519
291519
291519
291519
291519
291519
291519
290545
290545
290545
290545
290545
290545
290545
289357
289357
289357
289341
289341
289341
289341
289341
289341
289341
289341
289341
289341
289341
289341
288278
288278
288278
288278
288278
288278
288278
288278
288278
288278
288278
288278
288278
288278
288278
288278
288278
288278
288278
288278
287035
287035
287035
287035
287035
287035
287035
287035
287035
287035
287035
287035
285458
285458
285458
285458
285458
285458
285458
284475
284475
284475
284475
284475
284475
284475
284475
282224
282148
282148
282148
282148
282148
282148
282148
282148
282148
280960
280960
280960
280960
280960
280960
280960
280960
280960
280960
280152
280152
280152
280152
280152
280152
280152
280152
280152
280152
280152
280152
280152
280152
280152
280152
280152
280005
280005
280005
280005
280005
280005
280005
280005
279919
279919
279919
279919
279919
279919
279919
279906
279906
279906
279906
279906
279506
279506
279506
279506
279506
279506
279506
279506
279506
279506
279506
279506
279506
279506
278647
278647
278647
278647
278647
278647
278647
278647
278647
278647
278647
278647
278647
278647
278647
278647
278647
277782
277417
277417
277417
277417
277417
277417
277417
277417
277417
277417
277417
277417
277417
277417
277417
277417
277417
277348
277348
277348
277348
277348
277348
277348
277348
277348
277348
277348
277348
277348
277079
277079
277079
277079
277079
277079
277079
277079
277079
277079
277079
277079
277079
277079
277079
277079
277079
277079
277079
277079
276738
276738
276738
276396
276396
276396
276396
276396
276396
276396
276396
276396
276396
276396
276396
276069
276069
276069
276069
276069
276069
276069
276069
276069
276069
276069
276069
276069
276069
276069
276069
275614
275614
275510
275510
275510
275510
275510
275510
275510
275510
275510
275510
275510
275510
275510
275510
275510
275510
274577
274577
274577
274577
274577
274577
274577
274577
274577
274577
274577
274577
274204
274204
274204
274204
273036
273036
273036
273036
273036
273036
273036
273036
273036
273036
273036
273036
271322
271322
271322
271322
271322
271322
271322
271322
271322
271322
271322
271322
271322
270233
270233
270233
270233
270233
270233
269517
269517
269517
269517
269517
269517
269517
269517
269517
269517
269517
269517
269517
269517
269517
269517
269517
268913
268913
268913
268913
268913
268913
268913
268913
268913
268913
268913
268913
268913
268913
268913
268913
268913
268913
268249
268249
268249
268249
268249
268249
268249
268249
268249
268249
268249
268249
268249
268249
268249
268249
268089
268089
268089
268089
268089
268089
268089
268089
268089
268089
268089
268089
268089
268089
267391
267391
267391
266769
266769
266769
266769
266769
266769
266769
266769
266769
266595
266595
266595
266595
266595
266595
266595
266595
266595
266595
266595
266595
266474
266474
266474
266474
266474
266474
266474
266474
266474
266474
266474
266474
266474
266474
266474
266474
266474
266474
266474
266429
266429
266429
266429
266429
266429
266429
266429
266429
266429
265817
265817
265817
265817
265817
265817
265817
265817
265817
265817
265544
265544
265544
265544
265544
265544
265544
265544
265544
265051
265051
265051
265051
265051
265051
265051
265051
265051
265051
265051
265051
265051
265051
265051
265051
265051
265051
263756
263756
263644
263644
263644
263644
263644
263644
263644
263644
263644
263644
263644
263644
263644
263644
263644
263644
263644
262741
262741
261278
261278
261278
261278
261278
261278
261278
261278
261278
261278
261278
261278
261278
261278
261278
261278
261278
261278
261278
261278
260968
260968
260964
260964
260964
260964
260964
260964
260964
260964
260964
260964
260964
260964
260964
260964
260964
260964
260964
260964
260045
260045
260045
260045
260045
260045
260045
260045
260045
260045
260045
260045
260045
260045
260045
260045
260045
260045
259643
259643
259643
259643
259643
259643
259643
259637
259637
259346
259346
257012
257012
257012
257012
257012
257012
257012
257012
257012
257012
257012
257012
257012
256297
255625
255625
255625
255625
255625
255625
255625
255625
255625
255625
255625
255625
255625
255536
255536
255536
255536
255502
255502
255502
255327
255327
255327
255327
255327
255327
255327
255327
255327
255327
255327
255327
255327
255327
255327
255327
255327
253678
253678
253678
253678
253678
253678
252573
252573
252573
252573
252573
252573
252188
251090
251090
251090
251090
251090
251090
251090
251090
251090
251090
251090
251090
251090
250898
250898
250898
250898
248153
248153
248153
248153
248153
248153
248153
248153
248153
248153
248153
248153
248153
248153
248153
248153
248153
248153
248153
248153
248002
248002
248002
248002
248002
248002
248002
248002
248002
248002
248002
247989
247989
247989
247792
247792
247792
247792
247792
247792
247792
247792
247792
247792
247792
247792
247792
247792
247792
247792
247792
247792
247792
247610
247610
247610
247610
247610
247610
247610
247610
247610
247610
247610
247610
247610
246801
246801
246801
246801
246801
246801
246801
246801
246801
246801
246801
246801
246801
246801
246801
246801
246801
246546
246546
246546
246546
246546
246546
246546
246546
246546
246546
246546
246546
246546
246546
246546
246546
246546
241973
241973
241973
241973
241973
241973
241973
241973
241973
241973
241973
241973
241668
241668
241668
241668
241668
241668
241235
241235
241235
241235
241235
240430
240430
240430
240430
240430
240430
240430
240430
240430
240430
240430
239551
239551
239551
239551
239551
239551
239551
239551
239551
239551
239551
239551
239551
239551
239551
239551
239551
239309
239309
239309
239309
238897
238897
238897
238897
238897
238897
238897
238897
238897
238897
238897
238897
238897
238897
238897
237881
237881
237881
236437
236437
235448
235448
235448
235448
235448
235448
235448
235448
235448
235448
235448
235448
235448
235448
235448
235448
235448
235448
235276
235276
235276
235276
235276
235276
235276
235276
235276
235276
235276
235276
235276
234496
234496
234496
234496
234496
234496
234496
234496
234496
234496
234496
234496
234496
234418
234418
234418
234418
234418
234418
234418
234418
234418
234418
234418
234418
234292
234292
234292
233974
233974
233974
233974
233974
233974
233974
233974
233974
233974
233974
233974
233974
233974
233974
233974
233974
233974
233974
233974
233930
233930
233930
233930
233930
233930
233930
233930
233930
233930
233922
233922
233922
233922
233922
233922
233922
233922
233922
233922
233922
233922
233776
233776
233776
233776
233776
233776
233776
233776
233776
233776
233776
233776
233776
233776
232301
232301
232301
232301
232301
232301
232301
232301
232301
232301
232301
232301
232301
232301
232301
232301
232109
232109
232109
232109
232109
232109
232109
232109
232109
232109
232083
232007
232007
232007
232007
232007
232007
232007
232007
232007
232007
232007
232007
232007
232007
232007
232007
232007
232007
232007
232007
231782
231782
231782
231782
231782
231782
231782
231782
231782
231782
231367
231367
231367
231367
231367
231367
231367
231367
231367
231367
231367
231367
231367
231367
231367
231367
231367
227333
227333
227333
227333
227333
227118
227118
227118
227118
227118
227118
227118
227118
227118
227118
227118
226818
226818
226818
226818
226818
226818
226818
226818
226818
226818
226818
226818
226818
226491
226491
226491
226491
226491
226491
224819
224819
224819
224819
224819
224819
224819
224819
224819
224819
224819
224222
224222
224222
224222
224222
224222
224222
224222
224222
224222
224222
224222
224222
224222
224222
224222
224222
224222
224222
224222
223630
223630
223630
223630
223630
223630
223630
223630
223630
223630
223493
223493
223493
223493
222769
222769
222769
222769
222769
222769
222769
222769
222769
222769
222769
222769
222769
222769
222769
222769
222769
221814
221814
218889
218889
218889
218889
218889
218889
218889
218889
218889
218889
218889
218889
218889
217472
217472
217472
217472
217472
217472
217472
217472
217472
217472
217472
217472
217472
217472
217472
217472
217472
217472
217472
217472
217419
217419
217419
217419
216795
216795
216649
216649
216649
216649
216649
216649
216649
215900
215900
215900
215900
215900
215900
215900
215900
215900
215900
215900
215900
215900
215900
215900
215900
215900
215900
213766
213766
213766
213766
213766
213766
213766
213766
213766
213766
213766
213766
213766
213766
213766
213766
213766
213766
213766
213210
213210
213210
213210
213210
213210
212644
212644
212644
212644
212644
212644
212644
212644
212644
212644
212644
212644
212644
212644
212644
212644
211883
211883
211883
211883
211883
211883
211883
211883
211883
211883
211883
211714
211714
211714
211714
211714
211714
211714
211714
211602
211602
211602
211602
211602
211602
211602
210688
210688
210688
210688
210688
210688
210688
209709
209709
209709
209709
209709
209709
209709
209709
209709
209709
209709
209709
209709
209344
209344
209344
209344
209344
209344
209344
209344
209344
207350
207350
207350
207350
207350
207350
207350
206871
206722
206722
206722
206722
206722
206722
206722
206722
206722
206722
206722
206722
206722
206722
206722
206722
206722
206242
206242
206242
206242
206242
206242
206242
206242
206242
206242
206242
206242
206242
206242
206242
206242
206242
206242
205570
205570
205570
205570
205570
205570
205493
205493
205493
205493
205493
205493
205493
205493
205493
205493
204245
204245
204245
204245
204245
204245
204245
204245
204245
204245
204245
204245
204245
204245
204245
204163
204163
204047
204047
204047
203968
203968
203968
203968
203931
203931
203931
203931
203931
203931
203931
203931
203931
203931
203931
203931
203931
203931
203518
203518
203518
203518
203518
203518
203518
203518
203518
203518
202427
202427
202427
202427
202427
202427
202427
202427
202427
202427
202427
202427
202427
202427
202427
202427
202080
202080
202080
202080
202080
202080
202080
202080
201706
201706
201706
201706
201706
201706
201706
200738
200738
200738
199055
199055
199055
199055
199055
199055
199055
199055
199055
199055
199055
199055
199055
199055
197526
197526
197526
197526
197526
197526
197526
197526
197526
197526
197526
197526
197228
197228
197228
197228
197228
197228
197228
197228
197228
197228
197228
197228
197228
197228
197228
197228
196516
196516
196516
196516
196516
196516
196516
196516
196516
196516
196516
196516
196516
196516
196178
196178
196178
196178
196178
196178
196178
196178
196178
196178
196178
196178
196178
196178
196036
196036
196036
196036
196036
196036
196036
196036
196036
195427
195427
195427
195427
195427
195427
195427
195427
195427
195427
195369
195369
195369
195369
195369
195369
195369
195369
195369
195369
195369
194472
194472
194472
194472
194472
194472
194472
194472
194472
194472
194472
194472
194472
194472
194472
194472
194472
194472
194472
194472
194112
194112
194112
194112
194112
194112
194112
194112
194112
194112
194112
194112
193964
193964
193964
193964
193964
193964
193964
193964
193964
193964
193964
193964
193964
193964
193964
193964
193964
191613
191613
191613
191613
191613
191613
191613
191613
191613
191613
191613
191613
191613
191613
191613
191613
191613
191613
191613
191287
191287
191287
191287
191287
191287
191287
191287
191287
191287
191287
191287
191287
191287
191287
190785
190785
190193
190193
190193
190193
190124
190124
190124
190124
190124
190124
190124
190124
190124
190124
190124
190124
190124
190124
190124
190124
190124
190124
190124
190124
189912
189912
189912
189912
189912
189912
189912
189912
189912
189656
187506
187506
187506
187506
187506
187506
187506
187506
187506
187506
187506
187506
187506
187506
186117
186117
186117
186117
186117
186117
186117
186117
186117
186117
186117
186117
186117
186117
186117
186117
186117
186117
186117
186117
185991
185991
185991
185991
185991
185991
185991
185991
185991
185589
185589
185589
185589
185589
185204
185204
185204
185204
185204
185204
185204
185204
185204
185204
185204
185204
185204
185204
185204
185204
185204
185204
185204
184627
184627
184627
184627
184627
184505
184505
184505
184505
184505
184505
184505
184505
184505
184505
184505
184449
184449
184449
184449
184449
184449
184449
184449
184449
182129
182129
182129
182129
182129
182129
182129
182129
182129
182129
182129
182129
182129
182129
182129
182129
182129
182129
181773
181773
181773
181773
181773
181773
181773
181773
181773
181773
181773
181773
181373
181373
181373
181373
181373
181373
181373
181373
181373
181373
181373
181373
181373
181373
179575
179575
179575
179575
179575
179387
179387
179387
179387
179387
179387
179387
179387
179387
179387
179387
179108
179108
179108
179108
179108
179108
179108
178634
178634
178634
178634
178634
178634
178634
178634
178634
178634
176979
176979
176979
176979
176979
176979
176979
176979
176979
176979
176979
176979
176869
176869
176869
176869
176869
176869
176869
176869
176114
176114
176114
176114
176114
176114
176114
176114
176114
176114
175007
175007
175007
175007
175007
175007
175007
175007
175007
175007
175007
175007
173707
172674
172674
172674
172674
172674
172674
172674
172674
172674
172674
172674
172674
172674
171626
171626
171626
171626
171626
171626
171626
171626
171626
171626
171626
171626
171626
171626
171626
171626
171560
171560
171560
171560
171560
171560
171560
171560
171560
171560
171560
171560
171560
171560
170786
170786
170786
170786
170786
170786
170786
170786
170786
170786
170786
170786
170786
170786
170786
170786
170786
170786
170786
170257
170257
170257
170257
170257
170257
170257
170257
170257
170257
170257
170257
170257
170257
170257
170257
169329
169329
169329
169329
169329
169329
169329
169329
169329
168869
168869
168869
168869
168869
168869
167778
167778
167778
167778
167778
167778
167778
167778
167778
167778
167778
167778
167778
167778
167177
167177
167177
167177
167177
167177
167177
167177
167177
167177
167177
167177
167177
167177
167177
167177
167177
167177
167177
166875
166875
166875
166875
166875
166875
166875
166875
166875
166875
166875
166875
166443
166443
166443
166443
166443
166443
166443
166443
166235
166235
166235
166140
166140
166140
166140
166140
166140
166140
166140
166140
166140
166140
165532
165006
165006
165006
165006
165006
165006
165006
164213
164213
164213
164213
164213
164213
164213
163774
163774
163774
163774
163774
163774
163774
163287
163287
163287
163287
163287
163287
163287
163287
163287
163248
163248
163248
163248
163248
163248
163248
163248
163248
163248
163248
163248
163248
163248
163248
163248
163195
163195
163195
163195
163195
163195
163195
162950
162950
162950
162950
162950
162950
161742
161742
161742
161742
161742
160408
160408
160408
160408
160408
160408
160408
160408
160408
160408
160408
160408
160408
160408
160408
160408
160408
160408
160408
160360
160360
160360
160360
160360
160360
160360
160360
160360
160360
160360
160360
160360
159209
159209
159209
159209
159209
159209
159209
159209
159209
159209
159209
157295
157295
157295
157295
157295
157295
157295
157295
157295
157295
157295
157295
157295
157078
157078
157078
157078
157078
157078
157078
157078
157078
157078
157078
157078
157078
157078
157078
157078
157078
157078
157078
157078
155336
155336
155336
155336
155336
155336
155336
155336
155336
155336
155336
155336
155336
155336
155336
155336
155336
155336
155336
152207
152207
152207
152207
152207
152207
152207
152207
152207
152207
150054
150054
150054
149160
149160
149160
149160
149160
149160
149160
149160
149160
149160
149160
149160
148954
148954
148954
148954
148954
148954
148954
147412
147412
147412
147412
147412
147412
147412
145711
145711
145711
145193
144826
144826
144683
144659
144659
144659
144659
144659
144659
144659
144659
144659
144659
144659
140685
140685
140685
140414
140414
140414
140414
140414
140414
140414
140414
140414
140414
140414
140414
140068
140068
140068
139821
139821
139821
139821
139821
139821
139821
139821
139821
139821
139821
139821
139821
139821
139821
139821
139201
139201
139201
139201
139201
139201
139201
138931
138931
138931
138931
138931
138931
138931
138931
138931
138931
138931
138931
138931
138931
138931
138931
138931
137664
137664
137664
137664
137664
137664
137664
137664
137664
137664
137664
137664
137126
137126
136703
136703
136703
136703
136703
136703
136703
136703
136703
136703
136703
136703
136703
136703
136703
136703
136703
136703
136703
136703
136429
136429
136429
136429
136429
136429
136429
136429
136429
136429
136038
136038
136038
136038
136038
136038
136038
136038
136038
136038
136038
136038
136038
135105
135105
135105
135105
135105
135105
135105
135105
135105
135105
135105
135105
134836
134836
134836
134836
134836
134836
134836
134836
134836
134836
134836
134836
134836
134836
134836
134836
134836
134836
134836
134836
134524
134524
134524
134524
134524
134524
134524
134524
134524
134524
134524
134524
134524
134524
134524
134524
134029
134029
134029
134029
133818
133818
133818
133818
133818
133818
133818
133818
133818
133818
133818
133818
133818
133345
133087
133087
133087
133087
133087
133087
133087
133087
131838
131838
131838
131838
131838
131838
131838
131838
131838
131838
131838
131838
131838
131838
131838
131838
131838
131838
131378
131378
131378
131378
131378
131378
131378
131378
131378
131378
131378
131378
131378
131378
131378
131378
131378
129582
129582
129582
129582
129582
129582
129582
129582
129582
129582
129582
129493
129493
129493
128982
128982
128869
128869
128869
128869
128869
128869
128869
128869
128869
128869
128869
128869
128475
128475
128475
128475
128475
128475
128475
128475
128475
128475
128475
128475
128475
128475
128475
128475
128248
128248
128248
128248
128248
128248
128248
128248
128248
128248
128248
128248
128248
128248
128248
128248
128248
128248
127776
127776
127715
127715
127715
127715
127715
127715
127715
127715
127715
127715
127440
127440
127440
127440
127440
127440
127440
127440
127440
127440
127440
127440
126213
126213
126213
125120
125120
125120
125120
125120
125120
125120
125120
125120
125120
125120
123781
123781
123781
123781
123781
123781
123781
123781
123781
123781
123781
123781
123781
123781
123781
123781
123270
123270
123270
123270
123270
123270
123270
123270
123270
123270
123270
123270
123270
123270
123270
123270
123270
121979
121979
120868
119173
119173
119173
119173
119173
119173
114691
114691
114691
114691
114691
114691
114691
114691
114691
114691
114691
114691
114691
114691
114691
114691
114691
114691
114580
114580
114580
114580
114580
113921
113921
113921
113921
113921
113921
113921
113921
113921
113921
113921
113921
112920
112920
112920
112920
112920
112920
112920
112920
112920
112920
112920
112799
112799
112799
112799
112799
112799
112799
112799
112799
112799
112799
112799
112799
112799
112760
112760
112760
112760
112760
112760
112760
112760
112760
112760
112760
112760
112760
112760
112760
112760
112760
112760
112760
111215
111215
111215
111215
111084
111084
111084
111084
111084
111084
111084
111084
111084
111084
111084
111084
111084
111084
111084
111084
110629
110629
110629
110629
110629
110629
110629
110629
110620
110620
110620
110620
110620
110620
110620
110620
110620
110620
110620
110620
110620
110620
110087
110087
110087
110087
110087
110087
110087
110087
110087
110087
109852
109852
109852
109852
109852
109852
109852
109852
109852
109852
109852
109852
109852
109852
109852
109852
109049
109049
109049
109049
109049
109049
109049
109049
109049
109049
108399
108399
108399
108399
108399
108399
108399
108399
108399
108399
108399
108399
108399
108399
108399
108399
108399
108399
108399
108399
107894
107894
107894
107894
107894
107894
107894
107894
107894
107894
107894
107097
107097
107097
107097
107097
107097
107097
107097
107097
107097
107097
107097
107097
107097
107097
107097
107097
106178
106178
106178
106178
106178
106178
106178
106178
106178
106178
106178
106178
105937
105937
105937
105937
104891
104891
104891
104891
104891
104891
104891
104891
104891
104891
104891
104891
104176
104176
104176
104176
104176
104176
104176
104176
104176
104176
104176
104176
104176
104176
104176
104176
104176
104176
104176
101743
101743
101743
101743
101743
101743
101743
101743
101743
101743
101743
101743
100706
100706
100706
100706
100706
100706
100706
100706
100706
100304
100304
100304
100304
100304
100304
100304
100304
100304
100304
100304
100304
100304
100304
100304
100304
100304
100304
100304
100304
100212
100212
100212
100212
100212
99317
99317
99317
99317
99317
99317
99317
99317
99317
99317
99317
99317
99317
99317
98721
98609
98609
98609
98609
98609
98609
98609
98609
98609
98609
98609
98301
98301
98301
98065
98065
98065
98065
98065
98065
98065
98065
98065
98065
98065
98065
98065
98065
98065
98065
98065
98065
98063
98063
98063
98063
98063
98063
98063
97207
97207
97207
97207
95325
95325
95325
95325
95325
95325
95325
95325
95325
95325
95325
95325
95325
95325
94784
94784
94784
94784
94636
94636
94636
94636
94636
94636
94636
94636
94636
94636
93967
93967
93967
93967
93967
93967
93967
93967
93967
93967
93967
93967
93967
93102
93102
93102
93102
93102
92817
92817
92817
92817
92817
92817
92817
92817
92817
92817
92817
92817
92817
92817
92817
92817
92817
92817
90912
90912
90912
90912
90912
90912
90098
90098
90098
90098
90098
90098
90098
90098
90098
90098
90098
90098
90098
90098
90098
90098
90098
89215
89215
89215
89215
88614
88614
88614
88614
88614
88614
88614
88614
88614
88614
88614
88614
88614
88614
88614
88614
88538
88538
88538
88538
88538
88538
88538
88538
88538
88538
88538
88538
88538
88538
88538
88538
88538
87885
87885
87885
87885
87885
87885
87885
87885
87885
87885
87885
87885
87885
87885
87885
87885
87885
87885
87822
87822
85662
85662
85662
85662
85662
85662
85662
85662
85662
85662
85651
85651
85651
85651
85651
85651
85513
85513
85513
85513
85513
85513
85513
85513
85513
85513
85513
85513
85513
85513
85513
85513
84562
84562
84562
84562
84562
84562
84562
84562
84562
84562
84562
84562
83990
83990
83990
83990
83990
83990
83990
83990
83990
83990
83990
83990
83990
83990
83990
83990
83990
83934
83934
83934
83934
83934
83934
83934
83934
83934
82370
82370
82370
81429
81429
81429
81429
81429
81429
81429
81429
81429
81429
81429
81393
81393
81393
81393
81393
81393
81393
81393
81393
81393
81393
81393
81393
81393
81393
81393
81393
81393
81393
80634
80634
80634
80634
80634
80596
80596
80596
80596
80596
80596
80596
80596
80596
80596
80596
80596
80596
80596
80596
80293
80293
80293
80209
80209
80209
80209
80209
80209
80209
80209
79086
79086
79086
79086
79086
79086
79086
79086
79086
79086
79086
79086
79086
79086
79086
79086
79086
77429
77429
77429
77429
77429
77429
77429
77429
77429
77429
77429
77429
76740
76740
76740
76740
76740
76740
76740
76740
76740
76740
76740
76740
76740
75904
75904
75904
75904
75564
75564
75564
75564
75564
75564
75564
75564
75564
75564
75564
75564
75564
75564
75564
75564
75564
75564
75564
75564
74699
74699
74699
74699
74699
73970
73970
73970
72933
72933
72933
72933
72933
72933
72933
71888
71888
71888
71888
71888
71888
71888
71888
71888
71888
71888
71888
71888
71888
71888
71888
71357
71357
71357
71357
71357
71357
71357
71357
71357
71357
71357
71357
71357
71357
71357
71357
71357
71357
71357
71357
71324
71324
71324
71324
71324
71324
71324
71324
71324
71324
71324
71324
71324
71324
71324
71324
71239
71239
71239
71239
71239
70360
70360
70360
70360
70360
70360
70360
70029
70029
70029
70029
70029
70029
70029
70029
70029
70029
70029
70029
70029
70029
70029
70029
70029
70029
70029
70029
69726
69726
69726
69726
69726
69726
69150
69150
69150
69150
69150
69150
69150
69150
69150
69150
69150
69150
69150
69150
69150
69150
69150
69150
69150
68951
68951
68951
68951
68787
68787
68787
68787
68787
68787
68787
68787
68787
68787
67484
67484
67484
66772
66772
66772
66772
66772
66772
66772
66772
66772
66772
66772
66772
66772
66772
66772
66498
66498
66498
66498
66279
66279
66279
66279
66279
66279
66279
66279
66279
66279
66268
66268
66268
66268
66268
66268
66268
66268
66268
66268
66268
66268
66134
66134
66134
66134
66134
66134
66134
66134
65666
65666
65666
65666
65666
65666
65666
65666
65666
65666
65666
65666
65666
65666
65666
65666
65666
65666
65666
65203
65203
65203
64799
64799
64799
64799
64799
64799
64081
64081
64081
64081
64081
64081
64081
64081
64081
64081
64081
64081
64081
64081
64081
64081
64081
64081
64081
64077
64077
64077
64077
64077
64077
64077
64077
64077
64077
64077
64077
64077
64077
64077
64077
64077
64077
64077
64077
63652
63652
63652
63652
63652
63652
63652
63652
63652
63652
63652
63652
63652
63652
63652
63652
63652
63652
63652
63585
63585
63585
63585
63585
63585
62893
62893
62893
62893
62893
61645
61645
61645
61645
61645
61645
61645
61645
61645
61645
61645
61645
60765
60765
60765
60765
60765
60765
60765
60765
60765
60765
57676
57676
57676
57676
57676
57676
57676
57676
57676
57676
57676
57676
57676
57676
57676
57676
57676
57676
57676
57378
57378
57378
57378
57378
57378
57378
57378
54275
54275
54275
54275
54275
54275
54275
54275
54275
53481
53481
53481
53481
53481
53481
53481
53481
53481
53481
53481
53481
53481
53481
53481
53481
53163
53163
53163
53163
53163
53163
53163
53163
53163
53163
53163
53163
53163
52580
51433
51433
51433
51433
51433
51433
51213
51213
51213
49936
49936
49936
49936
49936
49936
49936
49936
49936
49936
49936
49936
49694
49694
49694
49694
49694
49590
49590
49590
49590
49590
49590
49590
49590
49590
49590
49590
49590
49007
49007
49007
49007
49007
49007
49007
49007
49007
49007
49007
48074
48074
48074
46311
46311
46311
46311
46311
46311
46311
46311
46311
46311
46311
46311
45851
45851
45851
45851
45851
45851
45851
45851
45851
45851
45480
45480
45480
45480
45480
45480
45480
45480
45480
45480
45480
45480
45480
44800
44403
44403
44403
44291
44291
44291
44291
44291
44291
44291
44291
44291
44291
44291
44291
44291
44291
44291
44291
44291
44035
44035
44035
44035
44035
44035
44035
44035
44035
44035
44035
43990
43990
43990
43990
43990
43990
43990
43990
43990
43990
43990
43990
43990
43990
43990
43990
43745
43745
43745
42590
42590
42590
42590
42590
42590
42590
41715
41715
41715
41715
41715
41507
41507
41507
41507
40848
40848
40848
40848
40848
40848
40848
40848
40848
40848
40848
40848
40848
40848
40848
40848
40848
40848
40848
40415
40415
40415
40415
40415
40415
40415
40415
40415
40415
40415
40415
40415
40415
40219
40219
40219
40219
40219
40219
40219
40219
40219
39278
39278
39278
39278
39278
39278
39278
39109
39109
38963
38963
38963
38963
38963
38963
38963
38963
38963
38963
38388
38388
38388
38388
38388
38388
38388
38388
38388
38145
38145
38145
38145
38145
38145
38145
38145
38145
38145
38145
38056
38056
38056
38056
38056
38056
37716
37716
37716
37716
37716
37716
37716
37716
37716
37716
37716
37716
37301
37301
37301
37301
37301
37301
37301
37301
37301
37301
37301
36755
36755
36755
36755
36755
36755
36755
36755
36755
36755
36755
36755
36755
36755
36755
36755
35758
35758
35758
35758
35758
35758
35214
35214
35214
35214
35214
35214
35214
35214
35214
35214
35214
35214
35214
35214
34046
34046
34046
34046
33052
33052
33052
33052
33052
33052
33052
33052
33052
32601
32601
32601
32601
32601
32601
32601
32601
32601
32601
32601
32601
32601
32601
32601
32601
32601
32601
30133
30133
30133
30133
30133
30133
30133
30133
30133
30133
30133
30133
30133
30133
30133
30133
30133
30133
29627
29627
29471
29471
29471
29471
29471
29471
29471
29471
29471
29471
29471
29471
29471
29471
29471
29471
29471
29471
29400
29400
29400
29400
29400
29400
29400
29400
29400
29400
29400
29400
29400
29400
28643
28643
28643
28643
28535
28535
28535
28535
28535
28535
28535
28535
28535
28535
28535
28535
28535
28535
28535
28535
28535
28426
28426
28426
28426
28426
28426
28426
28426
28426
28426
28426
28426
28426
28426
28426
28426
28426
28426
28191
28191
28191
28191
28191
28191
28191
28191
28191
28191
28191
28191
28191
28191
28191
28191
28191
28191
28191
28191
28149
28149
28149
28149
28149
28149
28149
27809
27809
27809
27809
27809
27809
27809
27809
27809
27809
27809
27475
27475
27475
27475
27475
27475
27475
27325
27325
27325
27325
27325
27325
27325
27325
27325
27325
27325
27325
27325
27325
27325
24835
24835
24290
24290
22244
22244
22244
22244
22244
22244
22244
22244
22244
22244
22244
22244
22244
22244
22244
22244
22244
22244
22244
22244
21431
21431
21431
21431
21431
21431
21431
21431
21431
21431
21431
21431
21004
21004
20758
20758
20758
20758
20758
20758
20758
20758
20758
20758
20758
20758
20758
20758
20758
20758
20758
20758
20758
19002
19002
19002
18671
18671
18671
18671
18671
18671
18671
18671
18671
18671
18671
18671
18671
18671
18671
18671
18671
18477
18477
18477
18477
17691
17691
17691
17691
17691
17691
17691
17691
17691
17691
17691
17691
17691
16966
16966
16571
16571
16571
16571
16571
16571
16571
16571
16571
16571
16571
16571
16571
16571
16571
16571
16571
16571
16571
16571
16516
16516
16516
16516
16516
16516
16516
16516
16516
16516
16516
16516
16516
16516
16516
16516
16516
16516
16516
16516
16329
16329
16329
16329
16329
16329
16329
16329
16329
16329
16329
16329
16329
16329
16329
16329
15907
15907
15907
15907
15907
15907
15907
15907
15907
15907
15907
15907
15907
15907
15907
15907
15907
15907
15907
15573
15573
15573
15573
15573
15573
15573
15573
15573
15573
15573
15573
15573
15573
13528
13528
13528
13528
13528
13528
13528
13528
13528
13528
13528
13528
13528
13528
13528
13528
13528
12349
12349
12349
12349
12349
12349
12349
12349
12349
12349
12349
12349
12349
11632
11632
11632
11632
10854
10854
10854
10854
10854
10854
10854
10854
10854
10854
10854
10854
10854
10854
10854
10854
10854
10854
10602
10602
10602
10602
10602
10602
10602
10602
10602
10602
10602
10500
10500
10500
10500
10500
10500
10500
10500
10500
10500
10500
10500
10500
10500
10500
9708
9708
9708
9708
9708
9708
9708
9708
9708
9708
8585
8585
8585
8585
8585
8585
8504
8404
8404
8404
8404
8404
8404
8404
8404
8404
8404
8404
8404
8404
8404
8404
8404
8404
8270
8270
8270
8270
8270
8270
8270
8270
8270
8270
8270
8270
8270
8270
8270
8270
8270
8270
8270
8250
8250
8250
8250
8250
7740
7740
7740
7740
7740
7740
7740
7740
7740
7740
7740
7130
7130
7130
7130
7130
7130
7130
7130
7130
7130
6767
6767
6767
6767
6767
6767
6767
6767
6767
6767
6767
6767
6767
6767
6767
6767
6767
6767
6767
6767
6712
6712
6712
6712
6712
6712
6712
6712
6712
6712
6712
6712
6712
6712
6712
6712
6712
6712
6712
6616
6616
6616
6616
6616
5855
5855
5855
5723
5723
5723
5030
5030
5030
5030
5030
5030
5030
5030
5030
5030
5030
4775
4775
4775
4775
4775
4775
4775
4775
4775
4775
4775
4674
4674
4674
4674
4674
4674
4674
4674
4674
4674
4674
4491
4421
4421
4421
4421
4421
4421
4421
4421
4421
4421
4421
3976
3976
3976
3976
3976
3976
3976
3976
3976
3976
3976
3976
3976
